300
100 100
1 80 516
2 80 848
3 80 810
4 80 602
5 79 221
6 79 679
7 79 103
8 79 286
9 79 824
10 78 586
11 78 616
12 78 495
13 78 214
14 78 894
15 78 244
16 77 466
17 77 234
18 76 240
19 76 69
20 76 506
21 76 150
22 76 561
23 76 941
24 76 117
25 76 12
26 75 86
27 75 245
28 75 698
29 75 289
30 74 339
31 74 797
32 74 1000
33 74 252
34 74 953
35 74 345
36 74 372
37 73 928
38 72 945
39 71 326
40 71 482
41 71 638
42 71 752
43 71 194
44 71 221
45 71 132
46 71 151
47 70 887
48 70 499
49 70 66
50 70 221
51 70 649
52 70 478
53 69 601
54 69 644
55 69 353
56 69 596
57 69 273
58 68 133
59 68 952
60 68 370
61 67 779
62 67 436
63 67 970
64 67 905
65 66 803
66 66 418
67 66 607
68 66 698
69 66 193
70 66 109
71 65 873
72 65 495
73 65 689
74 65 403
75 63 77
76 63 228
77 63 970
78 63 405
79 62 320
80 62 120
81 62 894
82 61 197
83 61 244
84 61 593
85 60 392
86 60 994
87 59 767
88 59 491
89 59 885
90 58 560
91 58 221
92 58 301
93 58 322
94 58 784
95 58 723
96 58 356
97 57 196
98 57 674
99 57 47
100 57 87
101 57 406
102 57 445
103 57 164
104 56 421
105 55 801
106 55 50
107 55 340
108 55 186
109 54 135
110 54 40
111 54 847
112 53 767
113 53 997
114 53 594
115 53 607
116 53 401
117 53 641
118 53 876
119 52 717
120 52 108
121 52 888
122 52 395
123 51 308
124 51 750
125 51 47
126 51 905
127 51 925
128 51 376
129 51 103
130 50 553
131 50 296
132 49 757
133 49 293
134 49 326
135 49 11
136 48 213
137 48 197
138 48 702
139 48 378
140 48 877
141 47 545
142 47 230
143 47 324
144 47 189
145 47 381
146 47 875
147 47 849
148 46 139
149 46 387
150 46 109
151 46 900
152 45 337
153 45 445
154 45 757
155 45 239
156 44 643
157 44 173
158 44 441
159 43 561
160 43 581
161 42 410
162 42 354
163 41 154
164 40 412
165 40 565
166 39 96
167 39 446
168 38 494
169 38 704
170 38 963
171 38 367
172 37 854
173 37 759
174 37 192
175 37 452
176 37 113
177 37 344
178 37 716
179 37 636
180 36 659
181 36 733
182 36 705
183 36 380
184 36 331
185 36 257
186 36 309
187 35 481
188 35 904
189 35 460
190 35 601
191 35 833
192 35 398
193 35 638
194 34 110
195 34 580
196 34 154
197 33 273
198 33 918
199 33 981
200 33 683
201 33 828
202 33 136
203 33 170
204 32 50
205 32 746
206 32 769
207 32 644
208 32 73
209 32 604
210 32 927
211 31 595
212 31 652
213 31 446
214 31 782
215 31 363
216 31 467
217 30 306
218 30 444
219 30 551
220 30 772
221 30 917
222 29 538
223 29 799
224 29 739
225 29 486
226 29 606
227 29 903
228 28 642
229 28 485
230 28 78
231 28 853
232 28 41
233 28 223
234 27 2
235 27 414
236 27 620
237 27 811
238 27 949
239 27 158
240 27 580
241 26 147
242 26 50
243 25 591
244 25 655
245 25 904
246 25 426
247 24 115
248 24 769
249 24 689
250 24 104
251 23 177
252 23 166
253 23 941
254 22 570
255 22 159
256 22 288
257 22 862
258 22 888
259 22 336
260 21 516
261 20 720
262 20 974
263 20 366
264 20 810
265 20 209
266 19 620
267 19 918
268 19 615
269 18 322
270 18 113
271 18 299
272 16 790
273 15 51
274 15 102
275 15 548
276 15 237
277 14 527
278 14 38
279 14 796
280 14 743
281 14 412
282 13 477
283 13 109
284 13 202
285 13 45
286 13 848
287 12 454
288 12 561
289 12 519
290 12 329
291 12 535
292 12 188
293 11 474
294 11 734
295 11 792
296 11 196
297 11 637
298 10 258
299 10 184
300 10 51
